c FILE /home/rafael/Documents/HappySet/MIHS/inputs/happygen/output/graph_d_regular_k4_p0.2_v100_20241127_084025.txt
c SOURCE This is a d-regular graph formed for the happy graph colouring problem.
c DESCRIPTION It was generated using the problem generator of Rhyd Lewis
c
c GRAPH STATS
c Seed                             = -1015049016
c Number of Nodes                  = 100
c Number of colours k              = 4
c Number of pre-assignments        = 20
c Degree of all vertices           = 6
c Density                          = 0.0606061
c 
c The degrees of nodes 1 to 100, respectively, are as follows 
c [6, 6, 6, 6, 6, 6, 6, 6, 6, 6, 6, 6, 6, 6, 6, 6, 6, 6, 6, 6, 6, 6, 6, 6, 6, 6, 
c  6, 6, 6, 6, 6, 6, 6, 6, 6, 6, 6, 6, 6, 6, 6, 6, 6, 6, 6, 6, 6, 6, 6, 6, 6, 
c  6, 6, 6, 6, 6, 6, 6, 6, 6, 6, 6, 6, 6, 6, 6, 6, 6, 6, 6, 6, 6, 6, 6, 6, 6, 
c  6, 6, 6, 6, 6, 6, 6, 6, 6, 6, 6, 6, 6, 6, 6, 6, 6, 6, 6, 6, 6, 6, 6, 6] 
c  
p edge 100 300 4
e 1 21
e 1 30
e 1 52
e 1 78
e 1 88
e 1 92
e 2 3
e 2 31
e 2 54
e 2 61
e 2 87
e 2 94
e 3 40
e 3 42
e 3 44
e 3 86
e 3 93
e 4 23
e 4 33
e 4 34
e 4 41
e 4 45
e 4 47
e 5 8
e 5 25
e 5 27
e 5 40
e 5 84
e 5 97
e 6 7
e 6 44
e 6 70
e 6 72
e 6 91
e 6 94
e 7 12
e 7 19
e 7 23
e 7 41
e 7 85
e 8 26
e 8 38
e 8 88
e 8 92
e 8 100
e 9 16
e 9 22
e 9 45
e 9 50
e 9 72
e 9 89
e 10 37
e 10 50
e 10 60
e 10 62
e 10 71
e 10 89
e 11 35
e 11 42
e 11 48
e 11 62
e 11 85
e 11 99
e 12 16
e 12 20
e 12 37
e 12 84
e 12 94
e 13 29
e 13 42
e 13 44
e 13 70
e 13 78
e 13 95
e 14 22
e 14 26
e 14 59
e 14 76
e 14 92
e 14 93
e 15 26
e 15 47
e 15 53
e 15 78
e 15 95
e 15 96
e 16 19
e 16 37
e 16 74
e 16 100
e 17 20
e 17 24
e 17 48
e 17 54
e 17 56
e 17 68
e 18 38
e 18 43
e 18 56
e 18 68
e 18 95
e 18 96
e 19 26
e 19 27
e 19 28
e 19 29
e 20 61
e 20 71
e 20 80
e 20 100
e 21 24
e 21 32
e 21 45
e 21 55
e 21 81
e 22 45
e 22 71
e 22 95
e 22 99
e 23 48
e 23 77
e 23 98
e 23 99
e 24 36
e 24 39
e 24 54
e 24 79
e 25 26
e 25 53
e 25 55
e 25 63
e 25 76
e 26 91
e 27 35
e 27 42
e 27 43
e 27 72
e 28 51
e 28 60
e 28 62
e 28 81
e 28 91
e 29 35
e 29 52
e 29 81
e 29 97
e 30 41
e 30 46
e 30 67
e 30 70
e 30 80
e 31 33
e 31 48
e 31 73
e 31 80
e 31 92
e 32 42
e 32 46
e 32 51
e 32 73
e 32 83
e 33 40
e 33 50
e 33 53
e 33 100
e 34 84
e 34 89
e 34 90
e 34 97
e 34 98
e 35 47
e 35 75
e 35 88
e 36 50
e 36 51
e 36 57
e 36 58
e 36 66
e 37 38
e 37 66
e 37 80
e 38 49
e 38 56
e 38 90
e 39 65
e 39 68
e 39 74
e 39 77
e 39 86
e 40 70
e 40 79
e 40 94
e 41 76
e 41 85
e 41 90
e 42 69
e 43 54
e 43 55
e 43 91
e 43 92
e 44 52
e 44 60
e 44 69
e 45 61
e 45 90
e 46 47
e 46 66
e 46 85
e 46 97
e 47 57
e 47 71
e 48 65
e 48 97
e 49 60
e 49 69
e 49 70
e 49 82
e 49 86
e 50 63
e 50 99
e 51 55
e 51 60
e 51 71
e 52 58
e 52 69
e 52 82
e 53 63
e 53 74
e 53 95
e 54 56
e 54 67
e 55 87
e 55 88
e 56 78
e 56 96
e 57 59
e 57 67
e 57 74
e 57 93
e 58 61
e 58 64
e 58 79
e 58 84
e 59 67
e 59 85
e 59 88
e 59 94
e 60 87
e 61 62
e 61 100
e 62 65
e 62 72
e 63 73
e 63 82
e 63 87
e 64 70
e 64 81
e 64 92
e 64 95
e 64 99
e 65 69
e 65 77
e 65 100
e 66 72
e 66 84
e 66 96
e 67 75
e 67 82
e 68 77
e 68 81
e 68 90
e 69 75
e 71 89
e 72 79
e 73 83
e 73 86
e 73 99
e 74 80
e 74 98
e 75 79
e 75 84
e 75 89
e 76 82
e 76 86
e 76 94
e 77 78
e 77 91
e 78 82
e 79 83
e 80 96
e 81 93
e 83 86
e 83 89
e 83 98
e 85 88
e 87 93
e 87 96
e 90 97
e 91 98
e 93 98
n 2 2
n 7 4
n 20 1
n 21 2
n 23 4
n 35 1
n 38 3
n 39 3
n 44 2
n 48 4
n 51 1
n 52 2
n 57 3
n 63 2
n 68 3
n 71 1
n 74 3
n 84 3
n 92 2
n 95 2
